30
782
429
true
0.25
45 2 2 8 49 42 19 16 37 41 15 36 16 30 1 25 17 39 6 8 9 49 21 41 15 41 38 47 35 30
-17 55 -83 -11 -71 50 -72 67 -7 -32 100 39 18 -56 -10 -20 4 -45 -28 -48 -16 -45 -3 -39 -54 -3 54 24 -28 -52
0 0 46 61 0 0 0 0 -21 0 0 15 0 0 0 0 0 -61 0 0 0 0 -84 0 0 0 -47 72 0 0
0 -3 0 0 0 0 0 0 0 87 0 0 0 0 0 -81 0 0 68 -57 0 0 -6 -19 43 0 5 0 0
0 -57 0 -100 0 0 0 0 0 0 0 0 0 79 0 0 0 -58 53 -56 0 -4 0 0 0 0 0 0
0 60 0 38 85 0 0 0 -52 23 0 89 0 0 -53 0 0 0 72 36 0 -12 0 -59 0 0 0
0 -28 0 -14 75 -98 -53 0 0 0 0 0 0 0 0 0 0 0 0 33 0 0 0 0 0 9
0 0 0 0 0 -59 0 0 0 0 0 72 0 0 0 0 0 48 0 0 0 0 0 0 0
0 0 0 0 0 0 0 0 0 0 0 0 0 0 0 0 0 -77 52 0 26 -38 0 0
0 57 0 0 0 0 95 0 -95 43 0 0 0 61 -72 0 0 0 0 0 0 0 0
0 0 0 0 0 0 0 -89 0 0 0 0 24 0 0 0 33 0 0 0 0 22
0 0 0 -35 0 0 0 42 0 0 77 0 71 95 0 0 0 0 0 33 80
0 0 0 0 0 71 0 37 0 43 87 -30 39 0 0 0 -9 0 0 0
0 56 0 0 65 0 0 0 0 0 0 -100 -52 0 0 0 0 0 0
0 0 0 0 0 0 0 0 0 41 0 0 96 0 33 0 0 0
0 0 0 0 0 -34 0 -19 0 -73 0 0 0 22 0 0 68
0 0 0 86 0 0 0 0 -3 0 0 0 0 84 0 -77
0 72 0 0 0 49 0 0 0 0 0 0 0 28 0
0 0 48 0 37 0 0 0 0 0 0 0 77 0
0 0 0 15 0 92 0 0 0 0 74 0 0
0 0 30 0 0 0 0 0 0 -13 0 85
0 -60 0 0 0 0 0 0 0 -67 0
0 0 0 0 0 0 0 0 0 0
0 0 0 65 0 0 0 0 0
0 0 5 0 0 0 0 0
0 0 0 -60 0 0 0
0 0 0 0 0 0
0 0 63 0 68
0 0 41 0
0 0 0
0 0
0 0 0 -50 0 0 0 41 0 0 0 0 0 0 0 -24 52 0 -57 0 56 0 0 0 80 0 0 0 0
0 0 53 0 -34 0 0 0 0 0 0 0 -23 0 0 0 0 0 0 0 0 0 0 0 0 0 0 0
0 0 33 0 0 0 0 0 0 0 0 0 0 0 84 0 -59 -35 0 0 97 -72 -26 0 -46 0 0
0 90 0 0 0 0 0 0 0 0 0 0 -70 0 0 0 -17 0 81 0 0 0 0 0 0 0
0 0 0 74 0 0 0 0 0 0 60 0 0 0 0 0 0 0 0 0 -93 0 0 0 0
0 0 0 93 0 -19 45 0 0 0 -75 -88 -88 0 64 0 -24 17 0 0 0 -9 0 0
0 0 3 0 0 0 0 0 0 0 85 0 0 -90 0 0 0 0 -98 0 0 0 -62
0 41 0 0 9 0 0 -75 0 0 0 0 0 0 0 0 0 0 0 0 -54 0
0 -16 -49 0 0 0 0 0 38 0 0 0 0 0 78 0 0 0 0 0 -82
0 0 0 0 0 35 0 -45 0 0 0 0 -80 0 0 25 0 0 0 0
0 0 0 16 -81 0 95 0 0 0 0 0 0 0 0 0 0 0 0
0 0 0 0 0 0 52 0 0 0 25 0 0 0 0 0 0 0
0 -19 0 0 0 0 0 0 0 -27 0 0 5 0 0 95 0
0 0 0 0 0 -10 0 33 0 0 0 0 0 0 0 0
0 -78 0 0 -97 98 0 0 -52 86 0 0 0 0 -54
0 0 0 0 0 0 37 0 0 0 0 0 0 0
0 0 0 -64 0 89 9 0 0 0 -92 -57 0
0 0 0 0 0 0 0 0 0 0 0 0
0 0 12 0 -31 0 0 2 0 0 18
0 0 -81 0 0 17 0 0 0 0
0 0 0 0 0 -3 0 0 55
0 90 0 0 0 -36 0 0
0 0 0 0 0 94 0
0 0 0 0 0 0
0 0 0 0 0
0 0 0 65
0 0 0
0 0
0
0 0 0 0 0 -83 45 -6 -42 0 0 32 0 -87 0 85 0 0 0 0 0 -11 0 0 70 0 0 77
0 0 0 0 -94 89 0 0 0 0 0 0 0 0 0 0 42 0 -38 80 0 0 0 99 0 45 0
0 0 0 0 0 0 0 0 0 0 0 58 -75 40 0 -83 0 -77 0 0 0 0 0 0 0 0
0 0 0 0 0 0 0 -45 0 0 -42 0 31 0 0 0 -13 -41 0 0 0 0 72 0 0
0 0 12 0 59 0 0 0 0 0 -52 0 0 0 0 0 0 0 0 -97 0 0 0 0
0 -21 0 0 0 0 41 0 57 0 0 0 0 0 92 -73 0 -62 0 65 0 -37 0
0 0 0 0 82 0 0 0 0 0 8 0 0 0 89 -37 38 0 36 -71 -38 -35
0 18 0 0 0 0 0 0 0 -17 0 0 0 0 0 0 0 0 0 0 0
0 0 0 0 -3 0 0 0 0 0 0 0 0 0 0 0 0 0 0 0
0 0 0 -4 0 0 87 0 62 17 0 0 13 0 0 0 29 -91 25
0 0 -61 0 0 99 0 -62 0 29 0 0 0 0 69 88 0 0
0 0 0 0 0 0 0 75 0 0 0 57 0 0 0 0 68
0 0 5 0 0 10 0 0 0 56 37 0 0 -64 0 0
0 0 0 0 0 0 61 0 0 53 0 -68 0 0 0
0 0 0 0 0 0 0 0 0 0 0 74 -45 -24
0 0 0 -67 79 0 65 0 0 0 3 0 0
0 0 -10 0 0 0 -20 0 -25 0 0 0
0 0 0 0 0 0 0 0 0 -5 18
0 94 46 -69 0 0 0 11 0 -67
0 0 0 0 0 -4 0 0 -47
0 0 0 13 -70 0 -74 83
0 0 0 0 0 0 0
0 0 -80 0 52 0
0 0 0 0 0
0 81 0 0
0 0 0
0 0
0
0 0 0 0 0 -6 0 -63 5 0 0 0 0 0 0 -10 0 -29 0 24 0 0 0 0 0 0 0
0 -36 0 0 0 -9 -52 0 0 0 0 -91 45 68 0 0 34 -99 0 0 -69 0 0 58 0 0
0 0 0 -86 0 48 0 0 0 0 0 0 0 0 0 0 0 0 51 0 62 0 0 0 0
0 0 0 -25 0 85 74 -28 83 -64 89 0 0 0 0 -74 84 0 0 0 0 0 -82 -12
0 0 34 0 40 0 -33 0 -60 -1 0 0 0 0 0 0 0 0 0 0 0 72 0
0 0 0 24 0 -50 0 15 -75 0 0 0 0 0 -57 0 -56 0 -94 0 0 0
0 0 0 0 0 71 0 0 -7 7 52 0 0 25 0 47 0 0 0 0 -79
0 0 -69 0 0 -21 -27 0 14 72 13 0 0 0 0 0 0 -32 0 12
0 -82 0 0 -14 0 0 0 0 0 0 0 26 70 0 0 0 0 0
0 80 0 0 0 0 0 0 34 0 0 0 8 0 0 -24 0 0
0 0 0 0 0 0 0 0 0 0 0 0 0 0 0 0 -30
0 0 0 39 -7 0 0 0 0 67 63 -31 53 0 48 0
0 48 -60 0 0 94 0 0 -58 0 0 78 0 0 -100
0 0 0 0 45 0 0 58 0 0 0 0 0 0
0 0 0 12 16 -18 0 0 40 0 -48 -18 -3
0 -52 0 -23 -50 -85 0 -2 -86 0 0 0
0 0 0 0 0 0 55 0 0 0 0
0 0 0 0 0 0 0 0 34 12
0 0 0 0 0 0 0 0 53
0 0 0 0 14 85 0 0
0 -7 0 0 0 -1 -12
0 0 0 0 0 0
0 0 0 0 71
0 0 0 -37
0 45 0
0 35
0
0 0 0 0 0 0 0 0 0 0 -90 -60 0 0 -46 77 0 0 0 0 0 -71 0 0 -30 0
0 0 0 0 0 0 0 -49 0 0 0 0 0 0 0 0 -15 0 0 0 0 0 0 0 0
0 47 0 0 0 -75 0 0 0 0 0 0 0 0 0 -85 0 0 0 0 0 -5 0 0
0 0 0 0 90 0 0 0 0 0 -10 0 0 -64 0 -57 45 0 0 0 0 0 0
0 0 10 97 0 67 0 0 0 0 0 0 0 0 0 0 0 0 0 49 0 0
0 0 0 0 0 0 -21 0 0 0 0 68 0 0 0 0 -65 0 0 0 0
0 0 36 0 80 0 0 59 -52 0 0 81 0 0 -68 -68 0 0 50 0
0 -15 0 0 -5 0 0 0 0 -3 0 0 0 -4 0 96 0 0 0
0 7 -26 0 0 0 0 0 0 0 0 0 0 0 0 0 0 0
0 -50 0 0 0 0 0 5 0 0 0 0 -92 0 -93 0 0
0 0 0 0 0 -49 0 0 0 0 0 0 0 0 0 83
0 13 0 -30 0 0 0 0 0 0 0 0 0 0 0
0 -99 0 -15 0 0 0 0 98 0 0 -1 0 0
0 0 0 0 70 0 -29 -95 0 0 71 0 0
0 0 0 -79 0 0 0 0 29 24 -33 0
0 0 -58 0 0 0 0 0 0 0 -81
0 0 0 39 0 0 0 31 0 -40
0 0 0 0 10 0 0 -7 0
0 0 0 -7 0 2 40 -97
0 0 0 -51 0 0 0
0 0 -32 0 0 0
0 0 -6 0 0
0 0 0 0
0 0 0
0 0
0
0 42 -15 -23 0 0 84 0 0 -52 0 0 0 0 -1 0 2 38 0 0 -35 0 0 0 0
0 0 0 0 0 43 0 0 0 0 0 0 0 42 0 0 0 -67 0 0 -22 0 71 0
0 0 0 0 0 0 0 10 29 0 0 0 0 0 0 0 0 0 0 0 15 0 0
0 0 0 57 88 86 6 0 0 -28 -95 0 0 0 0 0 0 0 0 -58 -91 0
0 -66 0 0 -89 0 -25 0 0 79 -70 0 57 0 0 0 -25 56 0 0 0
0 0 0 69 0 -52 6 -97 0 0 -25 82 0 0 0 0 0 0 0 43
0 0 0 0 85 0 0 0 46 0 47 -60 0 0 52 0 0 0 -97
0 -34 0 66 0 0 0 0 0 -52 0 0 0 0 0 0 -82 -41
0 0 0 0 0 0 0 0 0 0 19 0 0 0 0 45 0
0 0 -29 0 0 31 0 0 0 0 -96 0 -47 0 97 0
0 0 0 0 0 0 0 0 -43 0 0 -31 0 0 0
0 0 73 -58 0 -60 0 0 0 0 100 0 0 0
0 59 0 0 0 0 0 0 0 0 27 0 0
0 -88 0 0 0 0 89 0 -24 0 70 -64
0 2 0 0 -13 0 -10 0 0 0 94
0 0 0 0 0 -96 0 0 -13 -3
0 0 0 0 0 0 0 87 0
0 0 0 -78 0 0 0 -3
0 0 0 0 47 0 0
0 0 14 0 13 57
0 0 0 11 0
0 0 -75 0
0 0 0
0 0
0
0 0 0 -5 0 -94 0 -1 0 0 0 0 0 59 94 0 0 99 0 0 -16 0 -29 0
0 0 0 0 -55 0 0 0 0 0 0 0 -33 0 0 0 0 0 0 0 -43 0 0
0 0 0 -20 0 0 0 0 46 0 0 0 0 0 0 0 0 0 0 0 0 0
0 0 -59 0 0 -11 0 0 0 0 -37 -12 0 0 0 0 0 0 0 -42 91
0 0 0 0 0 0 0 0 0 -81 0 0 -15 0 0 0 0 29 0 -95
0 0 0 0 0 0 -84 0 0 -52 0 0 0 0 0 -79 0 0 0
0 0 0 0 14 0 0 0 -35 0 0 0 0 0 38 0 0 0
0 -91 0 0 94 -95 0 0 60 0 0 0 0 0 0 0 0
0 0 0 -25 0 0 0 0 90 0 0 0 0 0 0 0
0 0 0 0 0 0 0 -99 0 0 0 0 0 72 -94
0 0 0 0 0 0 0 0 -78 0 0 0 82 0
0 0 0 0 58 0 0 0 0 0 0 0 0
0 6 0 0 0 0 0 0 0 0 0 0
0 0 0 16 0 0 0 0 -26 0 85
0 0 0 0 0 0 0 0 14 82
0 0 0 -42 0 34 69 0 -66
0 11 -76 -52 0 0 0 0
0 0 0 0 0 -94 48
0 0 0 0 0 0
0 -9 0 -12 40
0 0 28 0
0 0 0
0 0
0
0 0 0 0 0 0 0 0 0 0 0 96 0 0 0 0 0 17 56 0 0 0 0
0 0 0 0 -34 -9 0 0 -75 -4 0 22 0 0 -14 0 0 0 0 0 -56 0
0 0 0 -93 57 44 83 -42 0 0 -89 0 0 0 -41 0 0 44 -55 -19 0
0 -8 0 0 0 0 0 0 25 0 0 0 0 0 70 0 0 0 0 0
0 54 0 -57 0 0 0 0 0 0 0 0 0 0 0 0 -45 0 0
0 0 40 0 0 0 -29 31 0 0 0 -58 0 0 83 0 0 0
0 2 0 -60 0 0 0 0 0 0 84 0 0 0 0 0 0
0 0 -59 -63 -54 29 0 0 0 0 -31 0 0 -63 -60 0
0 0 0 0 0 0 3 0 -51 0 0 0 0 0 0
0 0 0 0 0 35 0 -27 -27 0 8 0 0 0
0 0 -48 0 45 0 0 0 0 0 0 0 0
0 0 -9 0 0 -96 0 0 0 0 0 -65
0 -16 58 0 0 0 0 0 0 0 57
0 0 0 0 0 0 0 0 0 0
0 0 0 0 0 0 0 0 -19
0 0 0 0 32 0 0 -50
0 0 0 0 0 97 0
0 0 0 0 49 0
0 0 0 0 0
0 20 -71 0
0 0 85
0 0
0
0 0 0 0 0 0 0 0 0 0 0 0 -57 0 0 90 0 0 0 0 -100 0
0 -55 -59 0 0 0 0 0 0 -76 20 10 32 -18 0 0 0 0 48 0 -23
0 43 0 0 0 0 0 0 -19 0 0 38 0 0 0 -23 0 -70 -92 0
0 0 0 0 0 0 0 0 35 0 56 0 0 0 2 0 -26 0 0
0 0 0 0 0 79 0 0 0 0 87 0 0 -37 0 0 57 0
0 0 0 0 0 0 0 0 0 0 -7 0 0 0 0 0 0
0 0 0 -72 0 0 0 -100 41 71 0 0 0 0 0 0
0 0 0 0 50 0 0 0 0 0 0 0 0 0 0
0 0 -92 -100 0 0 -12 0 0 0 0 0 0 0
0 0 -26 0 0 0 0 0 0 0 0 0 -37
0 0 0 0 0 0 0 0 0 0 0 0
0 0 7 -86 0 0 0 -34 0 0 0
0 0 31 0 100 0 0 0 0 0
0 0 -100 24 0 0 -82 0 0
0 -59 0 0 -14 0 0 1
0 0 0 0 0 0 0
0 0 0 -67 29 0
0 0 0 0 -85
0 0 -82 0
0 0 0
0 0
0
0 0 0 0 0 0 0 -32 0 -81 0 11 0 0 0 0 0 0 -14 0 0
0 35 0 0 0 0 0 0 54 0 -55 0 0 0 0 0 0 0 50 0
0 0 0 0 83 -86 0 0 71 0 0 0 0 0 0 0 0 0 0
0 -59 -59 0 0 94 0 0 0 0 0 0 0 0 0 0 64 0
0 -29 0 0 0 34 0 0 0 0 0 0 0 0 0 0 -51
0 0 -34 0 60 41 0 0 0 0 0 0 0 -7 0 -69
0 0 0 0 -49 0 0 0 0 0 -43 62 0 68 0
0 0 15 0 -33 0 0 -35 0 -22 0 0 -70 0
0 0 41 0 0 0 -86 0 0 0 0 0 0
0 0 0 0 0 0 74 0 0 53 0 61
0 95 0 0 0 0 -19 0 0 0 0
0 0 0 0 0 14 0 62 65 0
0 0 73 0 0 0 0 0 53
0 0 0 65 0 0 0 0
0 0 0 0 0 0 0
0 -2 0 0 -57 -72
0 0 -43 0 0
0 0 0 0
0 0 0
0 0
0
0 0 0 0 0 0 0 0 0 0 0 0 0 0 0 54 0 0 26 53
0 0 0 -48 0 -84 0 0 0 0 0 0 0 0 0 0 0 42 0
0 0 -42 0 0 0 0 0 0 0 0 0 0 0 0 0 0 0
0 0 0 0 0 -80 0 0 -86 20 0 0 0 0 0 0 0
0 0 0 0 0 0 0 0 0 0 0 0 0 0 -19 0
0 0 0 0 0 0 0 0 84 0 -57 63 0 13 0
0 0 14 0 1 0 0 0 17 3 0 0 0 0
0 0 0 0 0 28 0 0 -35 0 34 0 -18
0 0 0 63 0 -21 -87 0 0 0 0 0
0 0 70 0 -32 70 0 69 0 0 0
0 0 0 0 0 -2 0 0 0 0
0 0 -88 0 0 0 0 87 0
0 -98 0 48 0 0 0 0
0 0 0 0 0 0 0
0 -86 0 0 32 0
0 0 -81 -57 0
0 0 0 0
0 0 0
0 0
0
0 0 0 0 0 0 0 0 0 -3 0 30 -53 0 0 0 0 0 0
0 0 0 0 75 0 0 -66 0 0 42 0 0 0 0 0 0 0
0 0 0 -24 0 0 0 0 0 69 -19 20 0 0 0 0 0
0 0 0 0 0 0 0 -85 0 0 0 11 -59 0 0 0
0 0 0 0 0 0 0 0 0 0 36 0 -80 0 0
0 0 1 0 79 -8 0 81 0 0 0 0 0 0
0 58 0 0 0 -96 0 -47 0 0 0 0 27
0 43 42 0 0 0 91 0 88 0 60 0
0 0 0 0 -66 0 0 96 0 0 0
0 46 0 0 0 0 8 0 0 -75
0 34 0 0 0 0 0 0 0
0 0 0 -29 0 99 0 63
0 0 0 0 0 0 0
0 81 0 88 0 0
0 0 0 -34 0
0 -93 0 0
0 76 0
0 0
0
0 0 0 0 0 71 0 0 86 0 -45 0 0 20 -33 0 -23 0
0 0 0 0 0 0 0 42 0 0 0 0 0 -89 0 64 0
0 0 0 0 0 0 0 7 0 53 0 0 0 0 -46 0
0 40 0 -100 0 0 20 0 0 0 0 70 0 0 0
0 0 0 0 0 -36 0 0 0 0 0 0 45 0
0 0 -47 0 0 0 0 0 -52 0 0 0 0
0 78 0 85 -74 -91 -98 -90 0 0 -18 0
0 -30 -35 93 0 -21 64 0 0 95 0
0 0 0 0 0 0 -17 0 0 24
0 0 1 0 0 0 0 0 -2
0 0 -60 -33 -17 0 0 0
0 0 0 0 0 -33 0
0 0 0 0 0 0
0 0 67 0 0
0 35 -35 0
0 0 74
0 0
0
0 0 0 0 0 0 0 0 0 0 0 0 0 0 40 0 41
0 0 0 -97 0 1 0 0 0 -93 48 94 -100 0 -79 0
0 5 0 -47 0 0 92 0 0 0 0 0 0 0 0
0 -34 -100 -89 0 0 0 -57 0 -33 0 0 0 0
0 0 0 0 0 -81 0 -56 0 0 0 0 0
0 0 -22 0 0 -62 0 0 73 0 0 0
0 0 0 0 0 12 -30 0 0 82 0
0 0 0 0 0 0 -97 0 -80 0
0 0 0 48 0 0 0 0 -86
0 0 0 0 0 81 -28 0
0 0 0 0 0 0 0
0 0 0 -92 0 0
0 0 0 0 0
0 0 0 -82
0 -24 0
0 0
0
0 0 0 0 0 0 0 0 0 0 0 0 0 0 0 0
0 0 0 51 0 0 0 0 0 41 0 0 0 0 0
0 0 0 0 0 -51 0 57 0 56 0 0 0 0
0 0 -86 0 49 72 0 0 0 -20 0 0 -2
0 0 68 0 0 0 48 0 0 0 0 0
0 0 0 0 0 0 0 0 99 0 -93
0 37 0 0 0 -27 0 0 0 0
0 -42 0 0 0 0 0 6 0
0 0 0 -68 0 -35 0 0
0 0 0 0 8 0 0
0 49 0 0 0 -10
0 0 0 0 -49
0 77 0 0
0 0 0
0 0
0
0 0 0 0 0 -35 0 0 0 0 0 0 0 0 0
0 0 0 0 0 0 0 0 -4 20 0 0 0 0
0 0 0 0 0 0 0 0 0 0 71 3 0
0 0 0 0 0 0 0 0 0 0 46 0
0 0 0 91 76 76 0 0 0 20 0
0 0 45 19 -53 0 -15 0 0 0
0 0 -82 0 0 0 0 0 -7
0 0 0 0 0 0 0 0
0 0 0 0 0 0 0
0 49 0 0 0 0
0 0 0 0 0
0 0 0 0
0 0 0
0 0
0
0 0 -88 0 0 0 0 0 49 25 -76 0 0 68
0 0 0 0 -68 0 49 0 0 28 0 0 -37
0 0 0 0 -78 86 0 -81 0 2 0 -59
0 0 0 0 -49 0 -98 0 -11 0 -38
0 0 0 0 0 0 0 0 -20 0
0 0 -21 0 0 0 0 0 0
0 0 0 0 0 0 81 0
0 -93 0 0 0 0 0
0 -94 0 0 -30 0
0 0 0 36 0
0 40 0 0
0 -83 0
0 31
0
0 0 0 18 0 0 0 0 -72 0 0 0 0
0 0 0 0 0 44 0 0 15 -48 -61 0
0 0 60 0 48 0 0 0 -32 0 0
0 5 0 0 0 0 0 0 0 0
0 -28 0 0 0 0 0 81 67
0 -48 -65 0 0 91 0 98
0 0 -23 0 0 0 0
0 0 0 14 -51 39
0 0 0 0 0
0 0 0 0
0 0 6
0 0
0
0 -5 0 -37 -23 0 -100 0 0 0 0 24
0 0 0 0 0 0 58 -98 99 -81 0
0 -15 50 0 0 0 0 0 0 0
0 0 25 0 0 60 0 -8 24
0 -26 -83 0 0 -77 0 0
0 0 0 0 0 0 0
0 0 0 -16 0 0
0 0 0 9 0
0 0 0 25
0 0 -48
0 0
0
0 0 0 0 0 0 0 0 0 0 0
0 0 0 89 0 51 0 0 0 42
0 0 0 -57 0 87 0 0 0
0 0 0 0 0 -77 0 0
0 0 0 -80 0 -73 0
0 0 0 92 0 -45
0 0 0 0 0
0 0 0 0
0 0 0
0 0
0
0 0 0 0 0 0 -43 0 0 0
0 0 0 0 50 -63 0 0 -61
0 0 -83 0 0 10 0 0
0 0 -71 0 -54 -72 -80
0 0 0 0 0 0
0 0 0 0 -90
0 0 0 0
0 0 0
0 0
0
0 0 0 90 54 0 0 0 -14
0 0 0 0 0 0 0 0
0 0 0 0 15 0 0
0 0 0 72 -78 -63
0 42 0 -28 0
0 0 0 0
0 0 0
0 0
0
0 0 0 90 0 0 0 0
0 0 79 0 0 0 0
0 -47 0 0 -20 0
0 0 0 0 97
0 0 0 0
0 17 0
0 0
0
0 18 0 0 0 0 -67
0 57 0 0 0 0
0 0 0 -8 0
0 0 0 0
0 0 0
0 0
0
0 4 -60 7 0 0
0 -88 0 -63 0
0 0 0 0
0 0 0
0 0
0
0 -29 0 0 -89
0 0 -8 0
0 0 0
0 0
0
0 -5 0 0
0 0 0
0 0
0
0 0 0
0 0
0
0 0
0
0
-51 974 140 -214 -405 -274 -310 -629 187 -204 818 211 -49 371 -204 -521 -377 5 -893 -394 893 1048 -116 -901 -315 -803 -108 781 -62 -433
-1.1333333333333333 487.0 70.0 -26.75 -8.26530612244898 -6.523809523809524 -16.31578947368421 -39.3125 5.054054054054054 -4.975609756097561 54.53333333333333 5.861111111111111 -3.0625 12.366666666666667 -204.0 -20.84 -22.176470588235293 0.1282051282051282 -148.83333333333334 -49.25 99.22222222222223 21.387755102040817 -5.523809523809524 -21.975609756097562 -21.0 -19.585365853658537 -2.8421052631578947 16.617021276595743 -1.7714285714285714 -14.433333333333334
